qbf_easy_train/easy_2051_SAT.qdimacs
p cnf 27 69
a 24 16 2 0
e 1 3 4 5 6 7 8 9 10 11 12 13 14 15 17 18 19 20 21 22 23 25 26 27 0
1 2 -3 0
-1 -2 -3 0
1 -2 3 0
-1 2 3 0
7 5 0
7 6 0
-5 -6 -7 0
-4 7 -8 0
4 -7 -8 0
-4 -7 8 0
4 7 8 0
2 8 -9 0
-2 -8 -9 0
2 -8 9 0
-2 8 9 0
10 3 0
10 -9 0
-3 9 -10 0
-11 2 -12 0
11 -2 -12 0
-11 -2 12 0
11 2 12 0
-13 11 0
-13 6 0
-11 -6 13 0
-14 12 0
-14 -13 0
-12 13 14 0
15 -6 -16 0
-15 6 -16 0
15 6 16 0
-15 -6 16 0
17 -5 0
17 -16 0
5 16 -17 0
18 1 0
18 -17 0
-1 17 -18 0
-19 14 0
-19 -18 0
-14 18 19 0
-20 -10 0
-20 -19 0
10 19 20 0
21 5 0
21 3 0
-5 -3 -21 0
-22 20 0
-22 -21 0
-20 21 22 0
-23 -7 0
-23 -11 0
7 11 23 0
25 24 0
25 -4 0
-24 4 -25 0
-26 -23 0
-26 -25 0
23 25 26 0
-27 -22 0
-27 -26 0
22 26 27 0
-27 -14 15 8 -23 20 3 0
4 -17 10 -12 0
-14 26 -25 13 -15 27 22 0
-7 14 20 -23 25 -18 0
17 -15 -3 -24 20 -18 -10 0
9 25 8 1 3 -18 0
27 0
