sat_easy_train/easy_2051_SAT.dimacs
p cnf 133 448
1 -2 -3 0
-1 2 -3 0
1 2 3 0
-1 -2 3 0
-6 -4 0
-6 -5 0
4 5 6 0
-3 -6 -7 0
3 6 -7 0
-3 6 7 0
3 -6 7 0
-8 -2 0
-8 -7 0
2 7 8 0
1 8 -9 0
-1 -8 -9 0
1 -8 9 0
-1 8 9 0
-11 -9 0
-11 10 0
9 -10 11 0
12 13 -14 0
-12 -13 -14 0
12 -13 14 0
-12 13 14 0
-15 -3 0
-15 8 0
3 -8 15 0
-16 13 0
-16 13 0
-13 16 0
-17 16 0
-17 13 0
-16 -13 17 0
-18 15 0
-18 -17 0
-15 17 18 0
20 -19 0
20 -13 0
19 13 -20 0
21 -18 0
21 -20 0
18 20 -21 0
-22 14 0
-22 21 0
-14 -21 22 0
23 -11 0
23 -22 0
11 22 -23 0
-24 -3 0
-24 1 0
3 -1 24 0
25 -20 0
25 24 0
20 -24 -25 0
26 -1 0
26 -25 0
1 25 -26 0
-27 4 0
-27 -26 0
-4 26 27 0
-28 -9 0
-28 -5 0
9 5 28 0
-26 -28 -29 0
26 28 -29 0
-26 28 29 0
26 -28 29 0
-30 24 0
-30 2 0
-24 -2 30 0
-29 30 -31 0
29 -30 -31 0
-29 -30 31 0
29 30 31 0
-32 -27 0
-32 31 0
27 -31 32 0
-33 -1 0
-33 -2 0
1 2 33 0
-34 16 -35 0
34 -16 -35 0
-34 -16 35 0
34 16 35 0
-36 -35 0
-36 19 0
35 -19 36 0
-37 6 0
-37 36 0
-6 -36 37 0
37 12 -38 0
-37 -12 -38 0
37 -12 38 0
-37 12 38 0
39 33 0
39 -38 0
-33 38 -39 0
40 32 0
40 39 0
-32 -39 -40 0
-41 -23 0
-41 40 0
23 -40 41 0
-42 1 0
-42 -34 0
-1 34 42 0
44 42 0
44 -43 0
-42 43 -44 0
19 -6 -45 0
-19 6 -45 0
19 6 45 0
-19 -6 45 0
-45 8 -46 0
45 -8 -46 0
-45 -8 46 0
45 8 46 0
46 7 -47 0
-46 -7 -47 0
46 -7 47 0
-46 7 47 0
-44 47 -48 0
44 -47 -48 0
-44 -47 48 0
44 47 48 0
-50 -49 0
-50 -30 0
49 30 50 0
51 -50 0
51 -50 0
50 -51 0
-52 48 0
-52 51 0
-48 -51 52 0
-26 -15 -53 0
26 15 -53 0
-26 15 53 0
26 -15 53 0
54 -52 0
54 53 0
52 -53 -54 0
6 -55 -56 0
-6 55 -56 0
6 55 56 0
-6 -55 56 0
-56 45 -57 0
56 -45 -57 0
-56 -45 57 0
56 45 57 0
58 -54 0
58 -57 0
54 57 -58 0
59 55 0
59 9 0
-55 -9 -59 0
10 -30 -60 0
-10 30 -60 0
10 30 60 0
-10 -30 60 0
61 60 0
61 16 0
-60 -16 -61 0
62 59 0
62 61 0
-59 -61 -62 0
-63 58 0
-63 -62 0
-58 62 63 0
41 63 -64 0
-41 -63 -64 0
41 -63 64 0
-41 63 64 0
-65 -45 0
-65 11 0
45 -11 65 0
-66 65 0
-66 -50 0
-65 50 66 0
-66 -67 -68 0
66 67 -68 0
-66 67 68 0
66 -67 68 0
5 -4 -69 0
-5 4 -69 0
5 4 69 0
-5 -4 69 0
-70 -66 0
-70 69 0
66 -69 70 0
-68 -70 -71 0
68 70 -71 0
-68 70 71 0
68 -70 71 0
-67 -72 -73 0
67 72 -73 0
-67 72 73 0
67 -72 73 0
-75 -74 0
-75 -13 0
74 13 75 0
44 75 -76 0
-44 -75 -76 0
44 -75 76 0
-44 75 76 0
-77 -3 0
-77 -76 0
3 76 77 0
-78 -13 0
-78 43 0
13 -43 78 0
78 56 -79 0
-78 -56 -79 0
78 -56 79 0
-78 56 79 0
-80 77 0
-80 79 0
-77 -79 80 0
81 73 0
81 80 0
-73 -80 -81 0
-82 71 0
-82 -81 0
-71 81 82 0
25 10 -83 0
-25 -10 -83 0
25 -10 83 0
-25 10 83 0
84 7 0
84 83 0
-7 -83 -84 0
-85 84 0
-85 -4 0
-84 4 85 0
-86 -42 0
-86 78 0
42 -78 86 0
87 85 0
87 -86 0
-85 86 -87 0
-49 3 -88 0
49 -3 -88 0
-49 -3 88 0
49 3 88 0
89 -87 0
89 -88 0
87 88 -89 0
90 -76 0
90 -3 0
76 3 -90 0
-91 50 0
-91 -49 0
-50 49 91 0
-92 -90 0
-92 -91 0
90 91 92 0
-93 2 0
-93 56 0
-2 -56 93 0
-94 92 0
-94 93 0
-92 -93 94 0
95 -65 0
95 -19 0
65 19 -95 0
-17 -21 -96 0
17 21 -96 0
-17 21 96 0
17 -21 96 0
97 -96 0
97 -67 0
96 67 -97 0
-98 95 0
-98 -97 0
-95 97 98 0
99 25 0
99 -4 0
-25 4 -99 0
49 99 -100 0
-49 -99 -100 0
49 -99 100 0
-49 99 100 0
-101 -29 0
-101 100 0
29 -100 101 0
102 -34 0
102 -101 0
34 101 -102 0
102 -26 -103 0
-102 26 -103 0
102 26 103 0
-102 -26 103 0
98 -103 -104 0
-98 103 -104 0
98 103 104 0
-98 -103 104 0
-105 94 0
-105 -104 0
-94 104 105 0
89 -105 -106 0
-89 105 -106 0
89 105 106 0
-89 -105 106 0
96 -35 -107 0
-96 35 -107 0
96 35 107 0
-96 -35 107 0
108 -16 0
108 -15 0
16 15 -108 0
110 -83 0
110 -17 0
83 17 -110 0
111 109 0
111 110 0
-109 -110 -111 0
112 -108 0
112 -111 0
108 111 -112 0
-113 -29 0
-113 -102 0
29 102 113 0
114 -112 0
114 -113 0
112 113 -114 0
-107 -114 -115 0
107 114 -115 0
-107 114 115 0
107 -114 115 0
116 106 0
116 115 0
-106 -115 -116 0
117 -82 0
117 -116 0
82 116 -117 0
-64 117 -118 0
64 -117 -118 0
-64 -117 118 0
64 117 118 0
119 74 0
119 20 0
-74 -20 -119 0
-120 42 0
-120 -20 0
-42 20 120 0
121 -13 0
121 -20 0
13 20 -121 0
-122 120 0
-122 121 0
-120 -121 122 0
-123 37 0
-123 99 0
-37 -99 123 0
2 -12 -124 0
-2 12 -124 0
2 12 124 0
-2 -12 124 0
-125 -74 0
-125 -124 0
74 124 125 0
126 -125 0
126 -83 0
125 83 -126 0
-12 46 -127 0
12 -46 -127 0
-12 -46 127 0
12 46 127 0
128 124 0
128 127 0
-124 -127 -128 0
-126 128 -129 0
126 -128 -129 0
-126 -128 129 0
126 128 129 0
130 -123 0
130 -129 0
123 129 -130 0
122 130 -131 0
-122 -130 -131 0
122 -130 131 0
-122 130 131 0
-119 131 -132 0
119 -131 -132 0
-119 -131 132 0
119 131 132 0
-133 118 0
-133 -132 0
-118 132 133 0
16 40 0
19 -4 0
34 -115 40 46 -18 -37 0
-115 -69 -77 111 0
-33 -128 20 -28 0
23 90 0
-39 110 0
-22 -125 -25 0
57 -39 0
-64 -26 96 -94 34 0
-77 -78 -121 84 45 0
-54 -87 -76 47 -102 -72 0
78 -36 -62 -101 133 -8 0
-46 39 1 33 -96 0
115 41 119 -90 -75 0
-33 -80 -51 0
-11 117 0
-85 124 48 47 0
1 21 18 -106 0
-94 102 0
-37 -61 14 107 -53 0
-43 -51 -110 72 -96 -41 0
-84 128 -67 0
51 -115 -82 -78 -66 0
42 -12 63 31 124 0
-97 -75 90 116 0
-21 95 30 20 -40 112 0
-73 -77 81 0
-33 -106 76 -99 -35 57 0
74 80 38 -27 92 0
-1 33 -109 46 32 -73 0
40 115 -130 95 0
91 -59 112 31 34 105 0
65 124 -114 72 -34 0
66 20 -109 13 -91 -38 0
-20 14 -38 0
-128 18 -9 -50 -108 0
-34 87 -18 -60 117 -128 0
50 -81 0
91 -122 -95 0
-34 98 -31 0
-25 120 0
132 122 87 119 -76 0
-133 -1 109 -66 0
108 110 0
34 -125 0
119 81 -104 -106 0
-60 -73 114 -112 0
90 114 -126 83 -130 88 0
25 -26 16 11 -92 0
-16 15 85 0
-14 -53 120 -126 -128 0
-64 -40 -57 -120 41 0
105 -38 -87 0
57 -128 114 -22 -133 0
126 -107 -105 129 125 -38 0
-101 81 25 -17 0
-79 111 54 -18 0
133 0
